p wcnf 91 2086 29
1 1 8 15 22 29 36 43 50 57 64 71 78 85 0
2 2 9 16 23 30 37 44 51 58 65 72 79 86 0
3 3 10 17 24 31 38 45 52 59 66 73 80 87 0
4 4 11 18 25 32 39 46 53 60 67 74 81 88 0
5 5 12 19 26 33 40 47 54 61 68 75 82 89 0
6 6 13 20 27 34 41 48 55 62 69 76 83 90 0
7 7 14 21 28 35 42 49 56 63 70 77 84 91 0
29 -1 -16 0
29 -1 -17 0
29 -1 -18 0
29 -1 -19 0
29 -1 -20 0
29 -1 -21 0
29 -2 -15 0
29 -2 -17 0
29 -2 -18 0
29 -2 -19 0
29 -2 -20 0
29 -2 -21 0
29 -3 -15 0
29 -3 -16 0
29 -3 -18 0
29 -3 -19 0
29 -3 -20 0
29 -3 -21 0
29 -4 -15 0
29 -4 -16 0
29 -4 -17 0
29 -4 -19 0
29 -4 -20 0
29 -4 -21 0
29 -5 -15 0
29 -5 -16 0
29 -5 -17 0
29 -5 -18 0
29 -5 -20 0
29 -5 -21 0
29 -6 -15 0
29 -6 -16 0
29 -6 -17 0
29 -6 -18 0
29 -6 -19 0
29 -6 -21 0
29 -7 -15 0
29 -7 -16 0
29 -7 -17 0
29 -7 -18 0
29 -7 -19 0
29 -7 -20 0
29 -1 -37 0
29 -1 -38 0
29 -1 -39 0
29 -1 -40 0
29 -1 -41 0
29 -1 -42 0
29 -2 -36 0
29 -2 -38 0
29 -2 -39 0
29 -2 -40 0
29 -2 -41 0
29 -2 -42 0
29 -3 -36 0
29 -3 -37 0
29 -3 -39 0
29 -3 -40 0
29 -3 -41 0
29 -3 -42 0
29 -4 -36 0
29 -4 -37 0
29 -4 -38 0
29 -4 -40 0
29 -4 -41 0
29 -4 -42 0
29 -5 -36 0
29 -5 -37 0
29 -5 -38 0
29 -5 -39 0
29 -5 -41 0
29 -5 -42 0
29 -6 -36 0
29 -6 -37 0
29 -6 -38 0
29 -6 -39 0
29 -6 -40 0
29 -6 -42 0
29 -7 -36 0
29 -7 -37 0
29 -7 -38 0
29 -7 -39 0
29 -7 -40 0
29 -7 -41 0
29 -1 -58 0
29 -1 -59 0
29 -1 -60 0
29 -1 -61 0
29 -1 -62 0
29 -1 -63 0
29 -2 -57 0
29 -2 -59 0
29 -2 -60 0
29 -2 -61 0
29 -2 -62 0
29 -2 -63 0
29 -3 -57 0
29 -3 -58 0
29 -3 -60 0
29 -3 -61 0
29 -3 -62 0
29 -3 -63 0
29 -4 -57 0
29 -4 -58 0
29 -4 -59 0
29 -4 -61 0
29 -4 -62 0
29 -4 -63 0
29 -5 -57 0
29 -5 -58 0
29 -5 -59 0
29 -5 -60 0
29 -5 -62 0
29 -5 -63 0
29 -6 -57 0
29 -6 -58 0
29 -6 -59 0
29 -6 -60 0
29 -6 -61 0
29 -6 -63 0
29 -7 -57 0
29 -7 -58 0
29 -7 -59 0
29 -7 -60 0
29 -7 -61 0
29 -7 -62 0
29 -8 -30 0
29 -8 -31 0
29 -8 -32 0
29 -8 -33 0
29 -8 -34 0
29 -8 -35 0
29 -9 -29 0
29 -9 -31 0
29 -9 -32 0
29 -9 -33 0
29 -9 -34 0
29 -9 -35 0
29 -10 -29 0
29 -10 -30 0
29 -10 -32 0
29 -10 -33 0
29 -10 -34 0
29 -10 -35 0
29 -11 -29 0
29 -11 -30 0
29 -11 -31 0
29 -11 -33 0
29 -11 -34 0
29 -11 -35 0
29 -12 -29 0
29 -12 -30 0
29 -12 -31 0
29 -12 -32 0
29 -12 -34 0
29 -12 -35 0
29 -13 -29 0
29 -13 -30 0
29 -13 -31 0
29 -13 -32 0
29 -13 -33 0
29 -13 -35 0
29 -14 -29 0
29 -14 -30 0
29 -14 -31 0
29 -14 -32 0
29 -14 -33 0
29 -14 -34 0
29 -8 -44 0
29 -8 -45 0
29 -8 -46 0
29 -8 -47 0
29 -8 -48 0
29 -8 -49 0
29 -9 -43 0
29 -9 -45 0
29 -9 -46 0
29 -9 -47 0
29 -9 -48 0
29 -9 -49 0
29 -10 -43 0
29 -10 -44 0
29 -10 -46 0
29 -10 -47 0
29 -10 -48 0
29 -10 -49 0
29 -11 -43 0
29 -11 -44 0
29 -11 -45 0
29 -11 -47 0
29 -11 -48 0
29 -11 -49 0
29 -12 -43 0
29 -12 -44 0
29 -12 -45 0
29 -12 -46 0
29 -12 -48 0
29 -12 -49 0
29 -13 -43 0
29 -13 -44 0
29 -13 -45 0
29 -13 -46 0
29 -13 -47 0
29 -13 -49 0
29 -14 -43 0
29 -14 -44 0
29 -14 -45 0
29 -14 -46 0
29 -14 -47 0
29 -14 -48 0
29 -8 -65 0
29 -8 -66 0
29 -8 -67 0
29 -8 -68 0
29 -8 -69 0
29 -8 -70 0
29 -9 -64 0
29 -9 -66 0
29 -9 -67 0
29 -9 -68 0
29 -9 -69 0
29 -9 -70 0
29 -10 -64 0
29 -10 -65 0
29 -10 -67 0
29 -10 -68 0
29 -10 -69 0
29 -10 -70 0
29 -11 -64 0
29 -11 -65 0
29 -11 -66 0
29 -11 -68 0
29 -11 -69 0
29 -11 -70 0
29 -12 -64 0
29 -12 -65 0
29 -12 -66 0
29 -12 -67 0
29 -12 -69 0
29 -12 -70 0
29 -13 -64 0
29 -13 -65 0
29 -13 -66 0
29 -13 -67 0
29 -13 -68 0
29 -13 -70 0
29 -14 -64 0
29 -14 -65 0
29 -14 -66 0
29 -14 -67 0
29 -14 -68 0
29 -14 -69 0
29 -15 -23 0
29 -15 -24 0
29 -15 -25 0
29 -15 -26 0
29 -15 -27 0
29 -15 -28 0
29 -16 -22 0
29 -16 -24 0
29 -16 -25 0
29 -16 -26 0
29 -16 -27 0
29 -16 -28 0
29 -17 -22 0
29 -17 -23 0
29 -17 -25 0
29 -17 -26 0
29 -17 -27 0
29 -17 -28 0
29 -18 -22 0
29 -18 -23 0
29 -18 -24 0
29 -18 -26 0
29 -18 -27 0
29 -18 -28 0
29 -19 -22 0
29 -19 -23 0
29 -19 -24 0
29 -19 -25 0
29 -19 -27 0
29 -19 -28 0
29 -20 -22 0
29 -20 -23 0
29 -20 -24 0
29 -20 -25 0
29 -20 -26 0
29 -20 -28 0
29 -21 -22 0
29 -21 -23 0
29 -21 -24 0
29 -21 -25 0
29 -21 -26 0
29 -21 -27 0
29 -15 -30 0
29 -15 -31 0
29 -15 -32 0
29 -15 -33 0
29 -15 -34 0
29 -15 -35 0
29 -16 -29 0
29 -16 -31 0
29 -16 -32 0
29 -16 -33 0
29 -16 -34 0
29 -16 -35 0
29 -17 -29 0
29 -17 -30 0
29 -17 -32 0
29 -17 -33 0
29 -17 -34 0
29 -17 -35 0
29 -18 -29 0
29 -18 -30 0
29 -18 -31 0
29 -18 -33 0
29 -18 -34 0
29 -18 -35 0
29 -19 -29 0
29 -19 -30 0
29 -19 -31 0
29 -19 -32 0
29 -19 -34 0
29 -19 -35 0
29 -20 -29 0
29 -20 -30 0
29 -20 -31 0
29 -20 -32 0
29 -20 -33 0
29 -20 -35 0
29 -21 -29 0
29 -21 -30 0
29 -21 -31 0
29 -21 -32 0
29 -21 -33 0
29 -21 -34 0
29 -15 -51 0
29 -15 -52 0
29 -15 -53 0
29 -15 -54 0
29 -15 -55 0
29 -15 -56 0
29 -16 -50 0
29 -16 -52 0
29 -16 -53 0
29 -16 -54 0
29 -16 -55 0
29 -16 -56 0
29 -17 -50 0
29 -17 -51 0
29 -17 -53 0
29 -17 -54 0
29 -17 -55 0
29 -17 -56 0
29 -18 -50 0
29 -18 -51 0
29 -18 -52 0
29 -18 -54 0
29 -18 -55 0
29 -18 -56 0
29 -19 -50 0
29 -19 -51 0
29 -19 -52 0
29 -19 -53 0
29 -19 -55 0
29 -19 -56 0
29 -20 -50 0
29 -20 -51 0
29 -20 -52 0
29 -20 -53 0
29 -20 -54 0
29 -20 -56 0
29 -21 -50 0
29 -21 -51 0
29 -21 -52 0
29 -21 -53 0
29 -21 -54 0
29 -21 -55 0
29 -15 -79 0
29 -15 -80 0
29 -15 -81 0
29 -15 -82 0
29 -15 -83 0
29 -15 -84 0
29 -16 -78 0
29 -16 -80 0
29 -16 -81 0
29 -16 -82 0
29 -16 -83 0
29 -16 -84 0
29 -17 -78 0
29 -17 -79 0
29 -17 -81 0
29 -17 -82 0
29 -17 -83 0
29 -17 -84 0
29 -18 -78 0
29 -18 -79 0
29 -18 -80 0
29 -18 -82 0
29 -18 -83 0
29 -18 -84 0
29 -19 -78 0
29 -19 -79 0
29 -19 -80 0
29 -19 -81 0
29 -19 -83 0
29 -19 -84 0
29 -20 -78 0
29 -20 -79 0
29 -20 -80 0
29 -20 -81 0
29 -20 -82 0
29 -20 -84 0
29 -21 -78 0
29 -21 -79 0
29 -21 -80 0
29 -21 -81 0
29 -21 -82 0
29 -21 -83 0
29 -22 -37 0
29 -22 -38 0
29 -22 -39 0
29 -22 -40 0
29 -22 -41 0
29 -22 -42 0
29 -23 -36 0
29 -23 -38 0
29 -23 -39 0
29 -23 -40 0
29 -23 -41 0
29 -23 -42 0
29 -24 -36 0
29 -24 -37 0
29 -24 -39 0
29 -24 -40 0
29 -24 -41 0
29 -24 -42 0
29 -25 -36 0
29 -25 -37 0
29 -25 -38 0
29 -25 -40 0
29 -25 -41 0
29 -25 -42 0
29 -26 -36 0
29 -26 -37 0
29 -26 -38 0
29 -26 -39 0
29 -26 -41 0
29 -26 -42 0
29 -27 -36 0
29 -27 -37 0
29 -27 -38 0
29 -27 -39 0
29 -27 -40 0
29 -27 -42 0
29 -28 -36 0
29 -28 -37 0
29 -28 -38 0
29 -28 -39 0
29 -28 -40 0
29 -28 -41 0
29 -22 -72 0
29 -22 -73 0
29 -22 -74 0
29 -22 -75 0
29 -22 -76 0
29 -22 -77 0
29 -23 -71 0
29 -23 -73 0
29 -23 -74 0
29 -23 -75 0
29 -23 -76 0
29 -23 -77 0
29 -24 -71 0
29 -24 -72 0
29 -24 -74 0
29 -24 -75 0
29 -24 -76 0
29 -24 -77 0
29 -25 -71 0
29 -25 -72 0
29 -25 -73 0
29 -25 -75 0
29 -25 -76 0
29 -25 -77 0
29 -26 -71 0
29 -26 -72 0
29 -26 -73 0
29 -26 -74 0
29 -26 -76 0
29 -26 -77 0
29 -27 -71 0
29 -27 -72 0
29 -27 -73 0
29 -27 -74 0
29 -27 -75 0
29 -27 -77 0
29 -28 -71 0
29 -28 -72 0
29 -28 -73 0
29 -28 -74 0
29 -28 -75 0
29 -28 -76 0
29 -22 -86 0
29 -22 -87 0
29 -22 -88 0
29 -22 -89 0
29 -22 -90 0
29 -22 -91 0
29 -23 -85 0
29 -23 -87 0
29 -23 -88 0
29 -23 -89 0
29 -23 -90 0
29 -23 -91 0
29 -24 -85 0
29 -24 -86 0
29 -24 -88 0
29 -24 -89 0
29 -24 -90 0
29 -24 -91 0
29 -25 -85 0
29 -25 -86 0
29 -25 -87 0
29 -25 -89 0
29 -25 -90 0
29 -25 -91 0
29 -26 -85 0
29 -26 -86 0
29 -26 -87 0
29 -26 -88 0
29 -26 -90 0
29 -26 -91 0
29 -27 -85 0
29 -27 -86 0
29 -27 -87 0
29 -27 -88 0
29 -27 -89 0
29 -27 -91 0
29 -28 -85 0
29 -28 -86 0
29 -28 -87 0
29 -28 -88 0
29 -28 -89 0
29 -28 -90 0
29 -29 -37 0
29 -29 -38 0
29 -29 -39 0
29 -29 -40 0
29 -29 -41 0
29 -29 -42 0
29 -30 -36 0
29 -30 -38 0
29 -30 -39 0
29 -30 -40 0
29 -30 -41 0
29 -30 -42 0
29 -31 -36 0
29 -31 -37 0
29 -31 -39 0
29 -31 -40 0
29 -31 -41 0
29 -31 -42 0
29 -32 -36 0
29 -32 -37 0
29 -32 -38 0
29 -32 -40 0
29 -32 -41 0
29 -32 -42 0
29 -33 -36 0
29 -33 -37 0
29 -33 -38 0
29 -33 -39 0
29 -33 -41 0
29 -33 -42 0
29 -34 -36 0
29 -34 -37 0
29 -34 -38 0
29 -34 -39 0
29 -34 -40 0
29 -34 -42 0
29 -35 -36 0
29 -35 -37 0
29 -35 -38 0
29 -35 -39 0
29 -35 -40 0
29 -35 -41 0
29 -29 -51 0
29 -29 -52 0
29 -29 -53 0
29 -29 -54 0
29 -29 -55 0
29 -29 -56 0
29 -30 -50 0
29 -30 -52 0
29 -30 -53 0
29 -30 -54 0
29 -30 -55 0
29 -30 -56 0
29 -31 -50 0
29 -31 -51 0
29 -31 -53 0
29 -31 -54 0
29 -31 -55 0
29 -31 -56 0
29 -32 -50 0
29 -32 -51 0
29 -32 -52 0
29 -32 -54 0
29 -32 -55 0
29 -32 -56 0
29 -33 -50 0
29 -33 -51 0
29 -33 -52 0
29 -33 -53 0
29 -33 -55 0
29 -33 -56 0
29 -34 -50 0
29 -34 -51 0
29 -34 -52 0
29 -34 -53 0
29 -34 -54 0
29 -34 -56 0
29 -35 -50 0
29 -35 -51 0
29 -35 -52 0
29 -35 -53 0
29 -35 -54 0
29 -35 -55 0
29 -29 -72 0
29 -29 -73 0
29 -29 -74 0
29 -29 -75 0
29 -29 -76 0
29 -29 -77 0
29 -30 -71 0
29 -30 -73 0
29 -30 -74 0
29 -30 -75 0
29 -30 -76 0
29 -30 -77 0
29 -31 -71 0
29 -31 -72 0
29 -31 -74 0
29 -31 -75 0
29 -31 -76 0
29 -31 -77 0
29 -32 -71 0
29 -32 -72 0
29 -32 -73 0
29 -32 -75 0
29 -32 -76 0
29 -32 -77 0
29 -33 -71 0
29 -33 -72 0
29 -33 -73 0
29 -33 -74 0
29 -33 -76 0
29 -33 -77 0
29 -34 -71 0
29 -34 -72 0
29 -34 -73 0
29 -34 -74 0
29 -34 -75 0
29 -34 -77 0
29 -35 -71 0
29 -35 -72 0
29 -35 -73 0
29 -35 -74 0
29 -35 -75 0
29 -35 -76 0
29 -36 -44 0
29 -36 -45 0
29 -36 -46 0
29 -36 -47 0
29 -36 -48 0
29 -36 -49 0
29 -37 -43 0
29 -37 -45 0
29 -37 -46 0
29 -37 -47 0
29 -37 -48 0
29 -37 -49 0
29 -38 -43 0
29 -38 -44 0
29 -38 -46 0
29 -38 -47 0
29 -38 -48 0
29 -38 -49 0
29 -39 -43 0
29 -39 -44 0
29 -39 -45 0
29 -39 -47 0
29 -39 -48 0
29 -39 -49 0
29 -40 -43 0
29 -40 -44 0
29 -40 -45 0
29 -40 -46 0
29 -40 -48 0
29 -40 -49 0
29 -41 -43 0
29 -41 -44 0
29 -41 -45 0
29 -41 -46 0
29 -41 -47 0
29 -41 -49 0
29 -42 -43 0
29 -42 -44 0
29 -42 -45 0
29 -42 -46 0
29 -42 -47 0
29 -42 -48 0
29 -36 -51 0
29 -36 -52 0
29 -36 -53 0
29 -36 -54 0
29 -36 -55 0
29 -36 -56 0
29 -37 -50 0
29 -37 -52 0
29 -37 -53 0
29 -37 -54 0
29 -37 -55 0
29 -37 -56 0
29 -38 -50 0
29 -38 -51 0
29 -38 -53 0
29 -38 -54 0
29 -38 -55 0
29 -38 -56 0
29 -39 -50 0
29 -39 -51 0
29 -39 -52 0
29 -39 -54 0
29 -39 -55 0
29 -39 -56 0
29 -40 -50 0
29 -40 -51 0
29 -40 -52 0
29 -40 -53 0
29 -40 -55 0
29 -40 -56 0
29 -41 -50 0
29 -41 -51 0
29 -41 -52 0
29 -41 -53 0
29 -41 -54 0
29 -41 -56 0
29 -42 -50 0
29 -42 -51 0
29 -42 -52 0
29 -42 -53 0
29 -42 -54 0
29 -42 -55 0
29 -36 -65 0
29 -36 -66 0
29 -36 -67 0
29 -36 -68 0
29 -36 -69 0
29 -36 -70 0
29 -37 -64 0
29 -37 -66 0
29 -37 -67 0
29 -37 -68 0
29 -37 -69 0
29 -37 -70 0
29 -38 -64 0
29 -38 -65 0
29 -38 -67 0
29 -38 -68 0
29 -38 -69 0
29 -38 -70 0
29 -39 -64 0
29 -39 -65 0
29 -39 -66 0
29 -39 -68 0
29 -39 -69 0
29 -39 -70 0
29 -40 -64 0
29 -40 -65 0
29 -40 -66 0
29 -40 -67 0
29 -40 -69 0
29 -40 -70 0
29 -41 -64 0
29 -41 -65 0
29 -41 -66 0
29 -41 -67 0
29 -41 -68 0
29 -41 -70 0
29 -42 -64 0
29 -42 -65 0
29 -42 -66 0
29 -42 -67 0
29 -42 -68 0
29 -42 -69 0
29 -36 -79 0
29 -36 -80 0
29 -36 -81 0
29 -36 -82 0
29 -36 -83 0
29 -36 -84 0
29 -37 -78 0
29 -37 -80 0
29 -37 -81 0
29 -37 -82 0
29 -37 -83 0
29 -37 -84 0
29 -38 -78 0
29 -38 -79 0
29 -38 -81 0
29 -38 -82 0
29 -38 -83 0
29 -38 -84 0
29 -39 -78 0
29 -39 -79 0
29 -39 -80 0
29 -39 -82 0
29 -39 -83 0
29 -39 -84 0
29 -40 -78 0
29 -40 -79 0
29 -40 -80 0
29 -40 -81 0
29 -40 -83 0
29 -40 -84 0
29 -41 -78 0
29 -41 -79 0
29 -41 -80 0
29 -41 -81 0
29 -41 -82 0
29 -41 -84 0
29 -42 -78 0
29 -42 -79 0
29 -42 -80 0
29 -42 -81 0
29 -42 -82 0
29 -42 -83 0
29 -43 -51 0
29 -43 -52 0
29 -43 -53 0
29 -43 -54 0
29 -43 -55 0
29 -43 -56 0
29 -44 -50 0
29 -44 -52 0
29 -44 -53 0
29 -44 -54 0
29 -44 -55 0
29 -44 -56 0
29 -45 -50 0
29 -45 -51 0
29 -45 -53 0
29 -45 -54 0
29 -45 -55 0
29 -45 -56 0
29 -46 -50 0
29 -46 -51 0
29 -46 -52 0
29 -46 -54 0
29 -46 -55 0
29 -46 -56 0
29 -47 -50 0
29 -47 -51 0
29 -47 -52 0
29 -47 -53 0
29 -47 -55 0
29 -47 -56 0
29 -48 -50 0
29 -48 -51 0
29 -48 -52 0
29 -48 -53 0
29 -48 -54 0
29 -48 -56 0
29 -49 -50 0
29 -49 -51 0
29 -49 -52 0
29 -49 -53 0
29 -49 -54 0
29 -49 -55 0
29 -43 -65 0
29 -43 -66 0
29 -43 -67 0
29 -43 -68 0
29 -43 -69 0
29 -43 -70 0
29 -44 -64 0
29 -44 -66 0
29 -44 -67 0
29 -44 -68 0
29 -44 -69 0
29 -44 -70 0
29 -45 -64 0
29 -45 -65 0
29 -45 -67 0
29 -45 -68 0
29 -45 -69 0
29 -45 -70 0
29 -46 -64 0
29 -46 -65 0
29 -46 -66 0
29 -46 -68 0
29 -46 -69 0
29 -46 -70 0
29 -47 -64 0
29 -47 -65 0
29 -47 -66 0
29 -47 -67 0
29 -47 -69 0
29 -47 -70 0
29 -48 -64 0
29 -48 -65 0
29 -48 -66 0
29 -48 -67 0
29 -48 -68 0
29 -48 -70 0
29 -49 -64 0
29 -49 -65 0
29 -49 -66 0
29 -49 -67 0
29 -49 -68 0
29 -49 -69 0
29 -43 -72 0
29 -43 -73 0
29 -43 -74 0
29 -43 -75 0
29 -43 -76 0
29 -43 -77 0
29 -44 -71 0
29 -44 -73 0
29 -44 -74 0
29 -44 -75 0
29 -44 -76 0
29 -44 -77 0
29 -45 -71 0
29 -45 -72 0
29 -45 -74 0
29 -45 -75 0
29 -45 -76 0
29 -45 -77 0
29 -46 -71 0
29 -46 -72 0
29 -46 -73 0
29 -46 -75 0
29 -46 -76 0
29 -46 -77 0
29 -47 -71 0
29 -47 -72 0
29 -47 -73 0
29 -47 -74 0
29 -47 -76 0
29 -47 -77 0
29 -48 -71 0
29 -48 -72 0
29 -48 -73 0
29 -48 -74 0
29 -48 -75 0
29 -48 -77 0
29 -49 -71 0
29 -49 -72 0
29 -49 -73 0
29 -49 -74 0
29 -49 -75 0
29 -49 -76 0
29 -43 -79 0
29 -43 -80 0
29 -43 -81 0
29 -43 -82 0
29 -43 -83 0
29 -43 -84 0
29 -44 -78 0
29 -44 -80 0
29 -44 -81 0
29 -44 -82 0
29 -44 -83 0
29 -44 -84 0
29 -45 -78 0
29 -45 -79 0
29 -45 -81 0
29 -45 -82 0
29 -45 -83 0
29 -45 -84 0
29 -46 -78 0
29 -46 -79 0
29 -46 -80 0
29 -46 -82 0
29 -46 -83 0
29 -46 -84 0
29 -47 -78 0
29 -47 -79 0
29 -47 -80 0
29 -47 -81 0
29 -47 -83 0
29 -47 -84 0
29 -48 -78 0
29 -48 -79 0
29 -48 -80 0
29 -48 -81 0
29 -48 -82 0
29 -48 -84 0
29 -49 -78 0
29 -49 -79 0
29 -49 -80 0
29 -49 -81 0
29 -49 -82 0
29 -49 -83 0
29 -50 -58 0
29 -50 -59 0
29 -50 -60 0
29 -50 -61 0
29 -50 -62 0
29 -50 -63 0
29 -51 -57 0
29 -51 -59 0
29 -51 -60 0
29 -51 -61 0
29 -51 -62 0
29 -51 -63 0
29 -52 -57 0
29 -52 -58 0
29 -52 -60 0
29 -52 -61 0
29 -52 -62 0
29 -52 -63 0
29 -53 -57 0
29 -53 -58 0
29 -53 -59 0
29 -53 -61 0
29 -53 -62 0
29 -53 -63 0
29 -54 -57 0
29 -54 -58 0
29 -54 -59 0
29 -54 -60 0
29 -54 -62 0
29 -54 -63 0
29 -55 -57 0
29 -55 -58 0
29 -55 -59 0
29 -55 -60 0
29 -55 -61 0
29 -55 -63 0
29 -56 -57 0
29 -56 -58 0
29 -56 -59 0
29 -56 -60 0
29 -56 -61 0
29 -56 -62 0
29 -50 -72 0
29 -50 -73 0
29 -50 -74 0
29 -50 -75 0
29 -50 -76 0
29 -50 -77 0
29 -51 -71 0
29 -51 -73 0
29 -51 -74 0
29 -51 -75 0
29 -51 -76 0
29 -51 -77 0
29 -52 -71 0
29 -52 -72 0
29 -52 -74 0
29 -52 -75 0
29 -52 -76 0
29 -52 -77 0
29 -53 -71 0
29 -53 -72 0
29 -53 -73 0
29 -53 -75 0
29 -53 -76 0
29 -53 -77 0
29 -54 -71 0
29 -54 -72 0
29 -54 -73 0
29 -54 -74 0
29 -54 -76 0
29 -54 -77 0
29 -55 -71 0
29 -55 -72 0
29 -55 -73 0
29 -55 -74 0
29 -55 -75 0
29 -55 -77 0
29 -56 -71 0
29 -56 -72 0
29 -56 -73 0
29 -56 -74 0
29 -56 -75 0
29 -56 -76 0
29 -57 -65 0
29 -57 -66 0
29 -57 -67 0
29 -57 -68 0
29 -57 -69 0
29 -57 -70 0
29 -58 -64 0
29 -58 -66 0
29 -58 -67 0
29 -58 -68 0
29 -58 -69 0
29 -58 -70 0
29 -59 -64 0
29 -59 -65 0
29 -59 -67 0
29 -59 -68 0
29 -59 -69 0
29 -59 -70 0
29 -60 -64 0
29 -60 -65 0
29 -60 -66 0
29 -60 -68 0
29 -60 -69 0
29 -60 -70 0
29 -61 -64 0
29 -61 -65 0
29 -61 -66 0
29 -61 -67 0
29 -61 -69 0
29 -61 -70 0
29 -62 -64 0
29 -62 -65 0
29 -62 -66 0
29 -62 -67 0
29 -62 -68 0
29 -62 -70 0
29 -63 -64 0
29 -63 -65 0
29 -63 -66 0
29 -63 -67 0
29 -63 -68 0
29 -63 -69 0
29 -64 -86 0
29 -64 -87 0
29 -64 -88 0
29 -64 -89 0
29 -64 -90 0
29 -64 -91 0
29 -65 -85 0
29 -65 -87 0
29 -65 -88 0
29 -65 -89 0
29 -65 -90 0
29 -65 -91 0
29 -66 -85 0
29 -66 -86 0
29 -66 -88 0
29 -66 -89 0
29 -66 -90 0
29 -66 -91 0
29 -67 -85 0
29 -67 -86 0
29 -67 -87 0
29 -67 -89 0
29 -67 -90 0
29 -67 -91 0
29 -68 -85 0
29 -68 -86 0
29 -68 -87 0
29 -68 -88 0
29 -68 -90 0
29 -68 -91 0
29 -69 -85 0
29 -69 -86 0
29 -69 -87 0
29 -69 -88 0
29 -69 -89 0
29 -69 -91 0
29 -70 -85 0
29 -70 -86 0
29 -70 -87 0
29 -70 -88 0
29 -70 -89 0
29 -70 -90 0
29 -71 -86 0
29 -71 -87 0
29 -71 -88 0
29 -71 -89 0
29 -71 -90 0
29 -71 -91 0
29 -72 -85 0
29 -72 -87 0
29 -72 -88 0
29 -72 -89 0
29 -72 -90 0
29 -72 -91 0
29 -73 -85 0
29 -73 -86 0
29 -73 -88 0
29 -73 -89 0
29 -73 -90 0
29 -73 -91 0
29 -74 -85 0
29 -74 -86 0
29 -74 -87 0
29 -74 -89 0
29 -74 -90 0
29 -74 -91 0
29 -75 -85 0
29 -75 -86 0
29 -75 -87 0
29 -75 -88 0
29 -75 -90 0
29 -75 -91 0
29 -76 -85 0
29 -76 -86 0
29 -76 -87 0
29 -76 -88 0
29 -76 -89 0
29 -76 -91 0
29 -77 -85 0
29 -77 -86 0
29 -77 -87 0
29 -77 -88 0
29 -77 -89 0
29 -77 -90 0
29 -78 -86 0
29 -78 -87 0
29 -78 -88 0
29 -78 -89 0
29 -78 -90 0
29 -78 -91 0
29 -79 -85 0
29 -79 -87 0
29 -79 -88 0
29 -79 -89 0
29 -79 -90 0
29 -79 -91 0
29 -80 -85 0
29 -80 -86 0
29 -80 -88 0
29 -80 -89 0
29 -80 -90 0
29 -80 -91 0
29 -81 -85 0
29 -81 -86 0
29 -81 -87 0
29 -81 -89 0
29 -81 -90 0
29 -81 -91 0
29 -82 -85 0
29 -82 -86 0
29 -82 -87 0
29 -82 -88 0
29 -82 -90 0
29 -82 -91 0
29 -83 -85 0
29 -83 -86 0
29 -83 -87 0
29 -83 -88 0
29 -83 -89 0
29 -83 -91 0
29 -84 -85 0
29 -84 -86 0
29 -84 -87 0
29 -84 -88 0
29 -84 -89 0
29 -84 -90 0
29 -1 -8 0
29 -1 -15 0
29 -1 -22 0
29 -1 -29 0
29 -1 -36 0
29 -1 -43 0
29 -1 -50 0
29 -1 -57 0
29 -1 -64 0
29 -1 -71 0
29 -1 -78 0
29 -1 -85 0
29 -2 -9 0
29 -2 -16 0
29 -2 -23 0
29 -2 -30 0
29 -2 -37 0
29 -2 -44 0
29 -2 -51 0
29 -2 -58 0
29 -2 -65 0
29 -2 -72 0
29 -2 -79 0
29 -2 -86 0
29 -3 -10 0
29 -3 -17 0
29 -3 -24 0
29 -3 -31 0
29 -3 -38 0
29 -3 -45 0
29 -3 -52 0
29 -3 -59 0
29 -3 -66 0
29 -3 -73 0
29 -3 -80 0
29 -3 -87 0
29 -4 -11 0
29 -4 -18 0
29 -4 -25 0
29 -4 -32 0
29 -4 -39 0
29 -4 -46 0
29 -4 -53 0
29 -4 -60 0
29 -4 -67 0
29 -4 -74 0
29 -4 -81 0
29 -4 -88 0
29 -5 -12 0
29 -5 -19 0
29 -5 -26 0
29 -5 -33 0
29 -5 -40 0
29 -5 -47 0
29 -5 -54 0
29 -5 -61 0
29 -5 -68 0
29 -5 -75 0
29 -5 -82 0
29 -5 -89 0
29 -6 -13 0
29 -6 -20 0
29 -6 -27 0
29 -6 -34 0
29 -6 -41 0
29 -6 -48 0
29 -6 -55 0
29 -6 -62 0
29 -6 -69 0
29 -6 -76 0
29 -6 -83 0
29 -6 -90 0
29 -7 -14 0
29 -7 -21 0
29 -7 -28 0
29 -7 -35 0
29 -7 -42 0
29 -7 -49 0
29 -7 -56 0
29 -7 -63 0
29 -7 -70 0
29 -7 -77 0
29 -7 -84 0
29 -7 -91 0
29 -8 -15 0
29 -8 -22 0
29 -8 -29 0
29 -8 -36 0
29 -8 -43 0
29 -8 -50 0
29 -8 -57 0
29 -8 -64 0
29 -8 -71 0
29 -8 -78 0
29 -8 -85 0
29 -9 -16 0
29 -9 -23 0
29 -9 -30 0
29 -9 -37 0
29 -9 -44 0
29 -9 -51 0
29 -9 -58 0
29 -9 -65 0
29 -9 -72 0
29 -9 -79 0
29 -9 -86 0
29 -10 -17 0
29 -10 -24 0
29 -10 -31 0
29 -10 -38 0
29 -10 -45 0
29 -10 -52 0
29 -10 -59 0
29 -10 -66 0
29 -10 -73 0
29 -10 -80 0
29 -10 -87 0
29 -11 -18 0
29 -11 -25 0
29 -11 -32 0
29 -11 -39 0
29 -11 -46 0
29 -11 -53 0
29 -11 -60 0
29 -11 -67 0
29 -11 -74 0
29 -11 -81 0
29 -11 -88 0
29 -12 -19 0
29 -12 -26 0
29 -12 -33 0
29 -12 -40 0
29 -12 -47 0
29 -12 -54 0
29 -12 -61 0
29 -12 -68 0
29 -12 -75 0
29 -12 -82 0
29 -12 -89 0
29 -13 -20 0
29 -13 -27 0
29 -13 -34 0
29 -13 -41 0
29 -13 -48 0
29 -13 -55 0
29 -13 -62 0
29 -13 -69 0
29 -13 -76 0
29 -13 -83 0
29 -13 -90 0
29 -14 -21 0
29 -14 -28 0
29 -14 -35 0
29 -14 -42 0
29 -14 -49 0
29 -14 -56 0
29 -14 -63 0
29 -14 -70 0
29 -14 -77 0
29 -14 -84 0
29 -14 -91 0
29 -15 -22 0
29 -15 -29 0
29 -15 -36 0
29 -15 -43 0
29 -15 -50 0
29 -15 -57 0
29 -15 -64 0
29 -15 -71 0
29 -15 -78 0
29 -15 -85 0
29 -16 -23 0
29 -16 -30 0
29 -16 -37 0
29 -16 -44 0
29 -16 -51 0
29 -16 -58 0
29 -16 -65 0
29 -16 -72 0
29 -16 -79 0
29 -16 -86 0
29 -17 -24 0
29 -17 -31 0
29 -17 -38 0
29 -17 -45 0
29 -17 -52 0
29 -17 -59 0
29 -17 -66 0
29 -17 -73 0
29 -17 -80 0
29 -17 -87 0
29 -18 -25 0
29 -18 -32 0
29 -18 -39 0
29 -18 -46 0
29 -18 -53 0
29 -18 -60 0
29 -18 -67 0
29 -18 -74 0
29 -18 -81 0
29 -18 -88 0
29 -19 -26 0
29 -19 -33 0
29 -19 -40 0
29 -19 -47 0
29 -19 -54 0
29 -19 -61 0
29 -19 -68 0
29 -19 -75 0
29 -19 -82 0
29 -19 -89 0
29 -20 -27 0
29 -20 -34 0
29 -20 -41 0
29 -20 -48 0
29 -20 -55 0
29 -20 -62 0
29 -20 -69 0
29 -20 -76 0
29 -20 -83 0
29 -20 -90 0
29 -21 -28 0
29 -21 -35 0
29 -21 -42 0
29 -21 -49 0
29 -21 -56 0
29 -21 -63 0
29 -21 -70 0
29 -21 -77 0
29 -21 -84 0
29 -21 -91 0
29 -22 -29 0
29 -22 -36 0
29 -22 -43 0
29 -22 -50 0
29 -22 -57 0
29 -22 -64 0
29 -22 -71 0
29 -22 -78 0
29 -22 -85 0
29 -23 -30 0
29 -23 -37 0
29 -23 -44 0
29 -23 -51 0
29 -23 -58 0
29 -23 -65 0
29 -23 -72 0
29 -23 -79 0
29 -23 -86 0
29 -24 -31 0
29 -24 -38 0
29 -24 -45 0
29 -24 -52 0
29 -24 -59 0
29 -24 -66 0
29 -24 -73 0
29 -24 -80 0
29 -24 -87 0
29 -25 -32 0
29 -25 -39 0
29 -25 -46 0
29 -25 -53 0
29 -25 -60 0
29 -25 -67 0
29 -25 -74 0
29 -25 -81 0
29 -25 -88 0
29 -26 -33 0
29 -26 -40 0
29 -26 -47 0
29 -26 -54 0
29 -26 -61 0
29 -26 -68 0
29 -26 -75 0
29 -26 -82 0
29 -26 -89 0
29 -27 -34 0
29 -27 -41 0
29 -27 -48 0
29 -27 -55 0
29 -27 -62 0
29 -27 -69 0
29 -27 -76 0
29 -27 -83 0
29 -27 -90 0
29 -28 -35 0
29 -28 -42 0
29 -28 -49 0
29 -28 -56 0
29 -28 -63 0
29 -28 -70 0
29 -28 -77 0
29 -28 -84 0
29 -28 -91 0
29 -29 -36 0
29 -29 -43 0
29 -29 -50 0
29 -29 -57 0
29 -29 -64 0
29 -29 -71 0
29 -29 -78 0
29 -29 -85 0
29 -30 -37 0
29 -30 -44 0
29 -30 -51 0
29 -30 -58 0
29 -30 -65 0
29 -30 -72 0
29 -30 -79 0
29 -30 -86 0
29 -31 -38 0
29 -31 -45 0
29 -31 -52 0
29 -31 -59 0
29 -31 -66 0
29 -31 -73 0
29 -31 -80 0
29 -31 -87 0
29 -32 -39 0
29 -32 -46 0
29 -32 -53 0
29 -32 -60 0
29 -32 -67 0
29 -32 -74 0
29 -32 -81 0
29 -32 -88 0
29 -33 -40 0
29 -33 -47 0
29 -33 -54 0
29 -33 -61 0
29 -33 -68 0
29 -33 -75 0
29 -33 -82 0
29 -33 -89 0
29 -34 -41 0
29 -34 -48 0
29 -34 -55 0
29 -34 -62 0
29 -34 -69 0
29 -34 -76 0
29 -34 -83 0
29 -34 -90 0
29 -35 -42 0
29 -35 -49 0
29 -35 -56 0
29 -35 -63 0
29 -35 -70 0
29 -35 -77 0
29 -35 -84 0
29 -35 -91 0
29 -36 -43 0
29 -36 -50 0
29 -36 -57 0
29 -36 -64 0
29 -36 -71 0
29 -36 -78 0
29 -36 -85 0
29 -37 -44 0
29 -37 -51 0
29 -37 -58 0
29 -37 -65 0
29 -37 -72 0
29 -37 -79 0
29 -37 -86 0
29 -38 -45 0
29 -38 -52 0
29 -38 -59 0
29 -38 -66 0
29 -38 -73 0
29 -38 -80 0
29 -38 -87 0
29 -39 -46 0
29 -39 -53 0
29 -39 -60 0
29 -39 -67 0
29 -39 -74 0
29 -39 -81 0
29 -39 -88 0
29 -40 -47 0
29 -40 -54 0
29 -40 -61 0
29 -40 -68 0
29 -40 -75 0
29 -40 -82 0
29 -40 -89 0
29 -41 -48 0
29 -41 -55 0
29 -41 -62 0
29 -41 -69 0
29 -41 -76 0
29 -41 -83 0
29 -41 -90 0
29 -42 -49 0
29 -42 -56 0
29 -42 -63 0
29 -42 -70 0
29 -42 -77 0
29 -42 -84 0
29 -42 -91 0
29 -43 -50 0
29 -43 -57 0
29 -43 -64 0
29 -43 -71 0
29 -43 -78 0
29 -43 -85 0
29 -44 -51 0
29 -44 -58 0
29 -44 -65 0
29 -44 -72 0
29 -44 -79 0
29 -44 -86 0
29 -45 -52 0
29 -45 -59 0
29 -45 -66 0
29 -45 -73 0
29 -45 -80 0
29 -45 -87 0
29 -46 -53 0
29 -46 -60 0
29 -46 -67 0
29 -46 -74 0
29 -46 -81 0
29 -46 -88 0
29 -47 -54 0
29 -47 -61 0
29 -47 -68 0
29 -47 -75 0
29 -47 -82 0
29 -47 -89 0
29 -48 -55 0
29 -48 -62 0
29 -48 -69 0
29 -48 -76 0
29 -48 -83 0
29 -48 -90 0
29 -49 -56 0
29 -49 -63 0
29 -49 -70 0
29 -49 -77 0
29 -49 -84 0
29 -49 -91 0
29 -50 -57 0
29 -50 -64 0
29 -50 -71 0
29 -50 -78 0
29 -50 -85 0
29 -51 -58 0
29 -51 -65 0
29 -51 -72 0
29 -51 -79 0
29 -51 -86 0
29 -52 -59 0
29 -52 -66 0
29 -52 -73 0
29 -52 -80 0
29 -52 -87 0
29 -53 -60 0
29 -53 -67 0
29 -53 -74 0
29 -53 -81 0
29 -53 -88 0
29 -54 -61 0
29 -54 -68 0
29 -54 -75 0
29 -54 -82 0
29 -54 -89 0
29 -55 -62 0
29 -55 -69 0
29 -55 -76 0
29 -55 -83 0
29 -55 -90 0
29 -56 -63 0
29 -56 -70 0
29 -56 -77 0
29 -56 -84 0
29 -56 -91 0
29 -57 -64 0
29 -57 -71 0
29 -57 -78 0
29 -57 -85 0
29 -58 -65 0
29 -58 -72 0
29 -58 -79 0
29 -58 -86 0
29 -59 -66 0
29 -59 -73 0
29 -59 -80 0
29 -59 -87 0
29 -60 -67 0
29 -60 -74 0
29 -60 -81 0
29 -60 -88 0
29 -61 -68 0
29 -61 -75 0
29 -61 -82 0
29 -61 -89 0
29 -62 -69 0
29 -62 -76 0
29 -62 -83 0
29 -62 -90 0
29 -63 -70 0
29 -63 -77 0
29 -63 -84 0
29 -63 -91 0
29 -64 -71 0
29 -64 -78 0
29 -64 -85 0
29 -65 -72 0
29 -65 -79 0
29 -65 -86 0
29 -66 -73 0
29 -66 -80 0
29 -66 -87 0
29 -67 -74 0
29 -67 -81 0
29 -67 -88 0
29 -68 -75 0
29 -68 -82 0
29 -68 -89 0
29 -69 -76 0
29 -69 -83 0
29 -69 -90 0
29 -70 -77 0
29 -70 -84 0
29 -70 -91 0
29 -71 -78 0
29 -71 -85 0
29 -72 -79 0
29 -72 -86 0
29 -73 -80 0
29 -73 -87 0
29 -74 -81 0
29 -74 -88 0
29 -75 -82 0
29 -75 -89 0
29 -76 -83 0
29 -76 -90 0
29 -77 -84 0
29 -77 -91 0
29 -78 -85 0
29 -79 -86 0
29 -80 -87 0
29 -81 -88 0
29 -82 -89 0
29 -83 -90 0
29 -84 -91 0
29 -1 -2 0
29 -1 -3 0
29 -1 -4 0
29 -1 -5 0
29 -1 -6 0
29 -1 -7 0
29 -2 -3 0
29 -2 -4 0
29 -2 -5 0
29 -2 -6 0
29 -2 -7 0
29 -3 -4 0
29 -3 -5 0
29 -3 -6 0
29 -3 -7 0
29 -4 -5 0
29 -4 -6 0
29 -4 -7 0
29 -5 -6 0
29 -5 -7 0
29 -6 -7 0
29 -8 -9 0
29 -8 -10 0
29 -8 -11 0
29 -8 -12 0
29 -8 -13 0
29 -8 -14 0
29 -9 -10 0
29 -9 -11 0
29 -9 -12 0
29 -9 -13 0
29 -9 -14 0
29 -10 -11 0
29 -10 -12 0
29 -10 -13 0
29 -10 -14 0
29 -11 -12 0
29 -11 -13 0
29 -11 -14 0
29 -12 -13 0
29 -12 -14 0
29 -13 -14 0
29 -15 -16 0
29 -15 -17 0
29 -15 -18 0
29 -15 -19 0
29 -15 -20 0
29 -15 -21 0
29 -16 -17 0
29 -16 -18 0
29 -16 -19 0
29 -16 -20 0
29 -16 -21 0
29 -17 -18 0
29 -17 -19 0
29 -17 -20 0
29 -17 -21 0
29 -18 -19 0
29 -18 -20 0
29 -18 -21 0
29 -19 -20 0
29 -19 -21 0
29 -20 -21 0
29 -22 -23 0
29 -22 -24 0
29 -22 -25 0
29 -22 -26 0
29 -22 -27 0
29 -22 -28 0
29 -23 -24 0
29 -23 -25 0
29 -23 -26 0
29 -23 -27 0
29 -23 -28 0
29 -24 -25 0
29 -24 -26 0
29 -24 -27 0
29 -24 -28 0
29 -25 -26 0
29 -25 -27 0
29 -25 -28 0
29 -26 -27 0
29 -26 -28 0
29 -27 -28 0
29 -29 -30 0
29 -29 -31 0
29 -29 -32 0
29 -29 -33 0
29 -29 -34 0
29 -29 -35 0
29 -30 -31 0
29 -30 -32 0
29 -30 -33 0
29 -30 -34 0
29 -30 -35 0
29 -31 -32 0
29 -31 -33 0
29 -31 -34 0
29 -31 -35 0
29 -32 -33 0
29 -32 -34 0
29 -32 -35 0
29 -33 -34 0
29 -33 -35 0
29 -34 -35 0
29 -36 -37 0
29 -36 -38 0
29 -36 -39 0
29 -36 -40 0
29 -36 -41 0
29 -36 -42 0
29 -37 -38 0
29 -37 -39 0
29 -37 -40 0
29 -37 -41 0
29 -37 -42 0
29 -38 -39 0
29 -38 -40 0
29 -38 -41 0
29 -38 -42 0
29 -39 -40 0
29 -39 -41 0
29 -39 -42 0
29 -40 -41 0
29 -40 -42 0
29 -41 -42 0
29 -43 -44 0
29 -43 -45 0
29 -43 -46 0
29 -43 -47 0
29 -43 -48 0
29 -43 -49 0
29 -44 -45 0
29 -44 -46 0
29 -44 -47 0
29 -44 -48 0
29 -44 -49 0
29 -45 -46 0
29 -45 -47 0
29 -45 -48 0
29 -45 -49 0
29 -46 -47 0
29 -46 -48 0
29 -46 -49 0
29 -47 -48 0
29 -47 -49 0
29 -48 -49 0
29 -50 -51 0
29 -50 -52 0
29 -50 -53 0
29 -50 -54 0
29 -50 -55 0
29 -50 -56 0
29 -51 -52 0
29 -51 -53 0
29 -51 -54 0
29 -51 -55 0
29 -51 -56 0
29 -52 -53 0
29 -52 -54 0
29 -52 -55 0
29 -52 -56 0
29 -53 -54 0
29 -53 -55 0
29 -53 -56 0
29 -54 -55 0
29 -54 -56 0
29 -55 -56 0
29 -57 -58 0
29 -57 -59 0
29 -57 -60 0
29 -57 -61 0
29 -57 -62 0
29 -57 -63 0
29 -58 -59 0
29 -58 -60 0
29 -58 -61 0
29 -58 -62 0
29 -58 -63 0
29 -59 -60 0
29 -59 -61 0
29 -59 -62 0
29 -59 -63 0
29 -60 -61 0
29 -60 -62 0
29 -60 -63 0
29 -61 -62 0
29 -61 -63 0
29 -62 -63 0
29 -64 -65 0
29 -64 -66 0
29 -64 -67 0
29 -64 -68 0
29 -64 -69 0
29 -64 -70 0
29 -65 -66 0
29 -65 -67 0
29 -65 -68 0
29 -65 -69 0
29 -65 -70 0
29 -66 -67 0
29 -66 -68 0
29 -66 -69 0
29 -66 -70 0
29 -67 -68 0
29 -67 -69 0
29 -67 -70 0
29 -68 -69 0
29 -68 -70 0
29 -69 -70 0
29 -71 -72 0
29 -71 -73 0
29 -71 -74 0
29 -71 -75 0
29 -71 -76 0
29 -71 -77 0
29 -72 -73 0
29 -72 -74 0
29 -72 -75 0
29 -72 -76 0
29 -72 -77 0
29 -73 -74 0
29 -73 -75 0
29 -73 -76 0
29 -73 -77 0
29 -74 -75 0
29 -74 -76 0
29 -74 -77 0
29 -75 -76 0
29 -75 -77 0
29 -76 -77 0
29 -78 -79 0
29 -78 -80 0
29 -78 -81 0
29 -78 -82 0
29 -78 -83 0
29 -78 -84 0
29 -79 -80 0
29 -79 -81 0
29 -79 -82 0
29 -79 -83 0
29 -79 -84 0
29 -80 -81 0
29 -80 -82 0
29 -80 -83 0
29 -80 -84 0
29 -81 -82 0
29 -81 -83 0
29 -81 -84 0
29 -82 -83 0
29 -82 -84 0
29 -83 -84 0
29 -85 -86 0
29 -85 -87 0
29 -85 -88 0
29 -85 -89 0
29 -85 -90 0
29 -85 -91 0
29 -86 -87 0
29 -86 -88 0
29 -86 -89 0
29 -86 -90 0
29 -86 -91 0
29 -87 -88 0
29 -87 -89 0
29 -87 -90 0
29 -87 -91 0
29 -88 -89 0
29 -88 -90 0
29 -88 -91 0
29 -89 -90 0
29 -89 -91 0
29 -90 -91 0
